

******************************************************************************
This program contains Ipopt, a library for large-scale nonlinear optimization.
 Ipopt is released as open source code under the Eclipse Public License (EPL).
         For more information visit http://projects.coin-or.org/Ipopt
******************************************************************************

This is Ipopt version 3.12.8, running with linear solver mumps.
NOTE: Other linear solvers might be more efficient (see Ipopt documentation).

Number of nonzeros in equality constraint Jacobian...:        6
Number of nonzeros in inequality constraint Jacobian.:        0
Number of nonzeros in Lagrangian Hessian.............:        9

Total number of variables............................:        5
                     variables with only lower bounds:        0
                variables with lower and upper bounds:        0
                     variables with only upper bounds:        0
Total number of equality constraints.................:        2
Total number of inequality constraints...............:        0
        inequality constraints with only lower bounds:        0
   inequality constraints with lower and upper bounds:        0
        inequality constraints with only upper bounds:        0

iter    objective    inf_pr   inf_du lg(mu)  ||d||  lg(rg) alpha_du alpha_pr  ls
   0  4.0000000e+00 5.66e+01 6.26e+00  -1.0 0.00e+00    -  0.00e+00 0.00e+00   0
   1  1.2767562e+00 1.69e+01 2.09e+00  -1.0 5.24e-01    -  1.00e+00 1.00e+00h  1
   2  5.3885724e-01 4.02e+00 7.14e-01  -1.0 2.19e-01    -  1.00e+00 1.00e+00h  1
   3  3.5074811e-01 5.08e-01 2.75e-01  -1.0 1.57e-01    -  1.00e+00 1.00e+00h  1
   4  3.0005073e-01 1.07e-02 1.40e-01  -1.7 1.88e-01    -  1.00e+00 1.00e+00h  1
   5  2.4589154e-01 2.20e-02 6.86e-02  -2.5 5.04e-01    -  1.00e+00 1.00e+00h  1
   6  2.6748276e-01 4.58e-03 3.59e-01  -2.5 3.40e-01    -  1.00e+00 1.00e+00H  1
   7  2.4522463e-01 3.71e-03 1.04e-01  -2.5 1.03e-01    -  1.00e+00 1.00e+00h  1
   8  2.4167144e-01 1.23e-03 2.24e-02  -2.5 6.28e-02    -  1.00e+00 1.00e+00h  1
   9  2.4149467e-01 1.49e-04 2.06e-03  -3.8 2.26e-02    -  1.00e+00 1.00e+00h  1
iter    objective    inf_pr   inf_du lg(mu)  ||d||  lg(rg) alpha_du alpha_pr  ls
  10  2.4150497e-01 1.80e-06 2.26e-05  -3.8 2.52e-03    -  1.00e+00 1.00e+00h  1
  11  2.4150513e-01 2.26e-10 2.83e-09  -5.7 2.84e-05    -  1.00e+00 1.00e+00h  1

Number of Iterations....: 11

                                   (scaled)                 (unscaled)
Objective...............:   2.4150512877022642e-01    2.4150512877022642e-01
Dual infeasibility......:   2.8281903416416121e-09    2.8281903416416121e-09
Constraint violation....:   2.2608270811019793e-10    2.2608270811019793e-10
Complementarity.........:   0.0000000000000000e+00    0.0000000000000000e+00
Overall NLP error.......:   2.8281903416416121e-09    2.8281903416416121e-09


Number of objective function evaluations             = 13
Number of objective gradient evaluations             = 12
Number of equality constraint evaluations            = 13
Number of inequality constraint evaluations          = 0
Number of equality constraint Jacobian evaluations   = 12
Number of inequality constraint Jacobian evaluations = 0
Number of Lagrangian Hessian evaluations             = 11
Total CPU secs in IPOPT (w/o function evaluations)   =      0.000
Total CPU secs in NLP function evaluations           =      0.000

EXIT: Optimal Solution Found.
 
Ipopt 3.12.8: Optimal Solution Found
